100 8
699 200
579 701
733 930
400 763
281 55
248 842
341 232
444 235
765 673
870 560
372 819
415 388
217 642
592 787
393 322
640 799
394 515
411 758
700 963
209 287
842 694
388 875
339 74
235 670
410 891
267 470
457 387
760 217
705 197
415 265
78 370
455 199
401 543
58 624
269 844
242 526
408 849
597 326
183 654
837 653
349 72
667 763
221 522
370 49
182 235
600 879
413 236
270 739
341 51
475 850
76 230
599 695
84 548
483 691
252 447
210 84
115 583
737 754
670 839
118 503
624 896
792 695
643 662
741 893
903 711
634 311
815 180
394 734
462 336
427 821
220 674
756 304
692 681
295 184
539 354
128 481
834 606
366 650
148 244
772 301
654 759
109 341
186 31
373 747
692 227
762 935
449 783
551 310
193 407
313 780
311 390
406 795
202 405
769 674
65 330
619 781
208 96
337 793
849 541
742 829
